num_stars = 6;
dim = 25;
sectors = [|
1, 1, 1, 1, 1, 1, 1, 1, 1, 1, 1, 2, 2, 2, 3, 3, 3, 3, 4, 5, 5, 5, 5, 5, 5|
1, 1, 1, 1, 1, 1, 1, 1, 1, 2, 2, 2, 2, 2, 2, 3, 4, 4, 4, 5, 5, 5, 5, 5, 5|
1, 1, 1, 1, 1, 1, 1, 1, 1, 1, 1, 2, 2, 2, 3, 3, 4, 4, 4, 5, 5, 5, 5, 5, 5|
6, 1, 6, 1, 6, 1, 1, 1, 1, 1, 1, 2, 2, 3, 3, 4, 4, 4, 4, 5, 5, 5, 5, 5, 5|
6, 6, 6, 6, 6, 1, 1, 1, 1, 1, 2, 2, 3, 3, 3, 4, 4, 4, 4, 4, 7, 7, 7, 7, 7|
8, 9, 9, 6, 6, 6, 1, 10, 1, 1, 1, 1, 1, 3, 4, 4, 4, 4, 4, 4, 4, 4, 4, 7, 7|
8, 8, 9, 6, 1, 1, 1, 10, 1, 11, 11, 11, 1, 3, 4, 11, 4, 4, 4, 7, 7, 7, 7, 7, 7|
8, 8, 9, 6, 1, 9, 1, 10, 10, 12, 12, 11, 11, 11, 11, 11, 4, 4, 4, 4, 4, 7, 7, 7, 7|
8, 8, 9, 9, 9, 9, 9, 9, 10, 10, 12, 11, 13, 13, 13, 11, 4, 4, 14, 14, 7, 7, 7, 7, 7|
8, 8, 8, 9, 15, 9, 10, 9, 10, 12, 12, 12, 13, 11, 11, 11, 4, 4, 14, 7, 7, 7, 7, 14, 7|
8, 8, 8, 15, 15, 9, 10, 10, 10, 10, 12, 13, 13, 13, 11, 11, 13, 13, 14, 14, 7, 7, 14, 14, 7|
8, 8, 8, 15, 10, 9, 9, 10, 12, 12, 12, 12, 12, 13, 13, 13, 13, 14, 14, 14, 14, 14, 14, 16, 16|
8, 8, 15, 15, 10, 10, 10, 10, 10, 12, 12, 12, 12, 12, 13, 12, 13, 14, 14, 17, 14, 16, 16, 16, 16|
8, 15, 15, 15, 15, 12, 12, 12, 12, 12, 12, 12, 12, 12, 12, 12, 14, 14, 17, 17, 14, 16, 16, 16, 16|
8, 8, 15, 15, 15, 12, 12, 12, 12, 12, 12, 12, 12, 12, 18, 14, 14, 19, 19, 17, 14, 17, 16, 16, 16|
8, 8, 15, 15, 15, 12, 15, 15, 15, 12, 12, 12, 12, 12, 18, 14, 19, 19, 17, 17, 17, 17, 16, 16, 16|
20, 8, 20, 15, 15, 15, 15, 15, 21, 21, 18, 12, 18, 18, 18, 19, 19, 19, 19, 19, 17, 17, 16, 16, 16|
20, 20, 20, 20, 20, 15, 15, 15, 15, 21, 18, 12, 18, 18, 19, 19, 19, 22, 19, 17, 17, 17, 17, 16, 16|
20, 20, 20, 20, 20, 20, 15, 21, 21, 21, 18, 18, 18, 19, 19, 22, 19, 22, 19, 17, 17, 17, 17, 16, 16|
20, 20, 20, 20, 20, 20, 20, 21, 23, 21, 21, 21, 21, 21, 21, 22, 19, 22, 22, 17, 17, 17, 16, 16, 16|
20, 20, 20, 20, 20, 20, 20, 21, 23, 23, 23, 21, 21, 22, 22, 22, 22, 22, 22, 17, 17, 17, 17, 16, 16|
20, 24, 24, 24, 20, 24, 20, 23, 23, 23, 23, 21, 23, 22, 25, 25, 25, 22, 22, 22, 17, 17, 17, 17, 17|
24, 24, 24, 24, 24, 24, 24, 23, 23, 23, 23, 21, 23, 23, 25, 22, 22, 22, 22, 22, 22, 22, 22, 22, 22|
24, 24, 24, 24, 24, 23, 23, 23, 23, 23, 23, 23, 23, 25, 25, 25, 22, 22, 22, 22, 22, 22, 22, 22, 22|
24, 24, 24, 24, 23, 23, 23, 23, 23, 23, 23, 23, 23, 23, 23, 25, 25, 25, 25, 25, 25, 22, 22, 22, 22|
];